15
2 0 3
3 2 1
4 0 11
4 1 8
4 2 8
4 3 11
5 1 2
5 2 2
5 4 6
6 0 6
6 1 10
6 2 7
7 1 1
7 2 9
7 3 10
7 4 1
7 5 3
8 0 9
8 1 5
8 3 6
8 5 2
8 6 7
8 7 5
9 1 6
9 3 12
9 4 6
9 8 5
10 0 5
10 1 5
10 2 1
10 3 1
10 5 8
10 7 7
11 1 5
11 2 7
11 3 5
11 4 6
11 5 11
11 6 7
11 7 7
12 0 4
12 2 10
12 3 2
12 5 12
12 7 2
12 8 4
12 10 8
13 0 3
13 2 7
13 3 2
13 4 7
13 6 8
13 9 1
13 11 4
14 2 12
14 3 12
14 4 6
14 6 5
14 7 5
14 12 8
